25° run output:
{
    "Function": "euclidB500.tsp",
    "Problem dimension": [
        56,
        384,
        186,
        203,
        309,
        183,
        344,
        89,
        377,
        371,
        60,
        403,
        182,
        201,
        489,
        165,
        392,
        299,
        356,
        428,
        466,
        58,
        40,
        426,
        149,
        47,
        296,
        35,
        480,
        486,
        45,
        206,
        484,
        26,
        185,
        117,
        215,
        443,
        37,
        161,
        217,
        261,
        325,
        257,
        348,
        138,
        425,
        110,
        460,
        241,
        379,
        16,
        479,
        349,
        100,
        8,
        153,
        15,
        463,
        69,
        51,
        155,
        320,
        408,
        464,
        472,
        407,
        312,
        437,
        126,
        289,
        311,
        255,
        386,
        157,
        244,
        48,
        498,
        278,
        78,
        83,
        406,
        265,
        23,
        17,
        119,
        147,
        85,
        13,
        74,
        226,
        234,
        446,
        190,
        171,
        39,
        412,
        447,
        152,
        158,
        286,
        102,
        154,
        267,
        465,
        332,
        365,
        229,
        497,
        247,
        336,
        97,
        343,
        5,
        73,
        127,
        50,
        84,
        418,
        216,
        439,
        298,
        208,
        123,
        34,
        6,
        245,
        150,
        415,
        376,
        195,
        413,
        442,
        125,
        335,
        174,
        144,
        326,
        219,
        59,
        105,
        262,
        87,
        254,
        94,
        411,
        124,
        7,
        81,
        139,
        46,
        10,
        122,
        436,
        456,
        293,
        334,
        111,
        396,
        276,
        434,
        302,
        275,
        393,
        211,
        366,
        470,
        25,
        310,
        319,
        359,
        227,
        238,
        491,
        133,
        321,
        91,
        427,
        373,
        64,
        169,
        419,
        420,
        315,
        160,
        232,
        364,
        225,
        431,
        438,
        269,
        368,
        33,
        471,
        228,
        402,
        340,
        107,
        103,
        32,
        128,
        461,
        363,
        189,
        62,
        164,
        390,
        454,
        71,
        391,
        31,
        496,
        3,
        88,
        284,
        285,
        194,
        485,
        70,
        79,
        295,
        141,
        281,
        178,
        282,
        98,
        369,
        181,
        318,
        457,
        328,
        239,
        404,
        248,
        53,
        30,
        41,
        210,
        350,
        444,
        175,
        130,
        184,
        478,
        468,
        63,
        448,
        176,
        82,
        476,
        90,
        433,
        333,
        93,
        246,
        294,
        270,
        42,
        77,
        177,
        207,
        204,
        18,
        260,
        151,
        339,
        212,
        445,
        435,
        22,
        142,
        441,
        240,
        473,
        345,
        487,
        451,
        198,
        337,
        19,
        458,
        273,
        9,
        108,
        474,
        397,
        28,
        259,
        314,
        49,
        92,
        193,
        200,
        353,
        450,
        331,
        305,
        358,
        477,
        370,
        66,
        271,
        423,
        65,
        106,
        362,
        297,
        401,
        76,
        36,
        86,
        399,
        264,
        224,
        55,
        44,
        140,
        414,
        243,
        146,
        180,
        173,
        385,
        68,
        481,
        120,
        256,
        145,
        143,
        490,
        492,
        168,
        306,
        449,
        205,
        422,
        116,
        352,
        272,
        452,
        197,
        166,
        361,
        268,
        72,
        237,
        11,
        346,
        252,
        114,
        21,
        287,
        329,
        27,
        135,
        121,
        375,
        342,
        95,
        351,
        347,
        400,
        118,
        290,
        129,
        405,
        354,
        233,
        101,
        455,
        250,
        280,
        394,
        360,
        440,
        467,
        424,
        170,
        277,
        429,
        395,
        475,
        172,
        432,
        453,
        482,
        251,
        374,
        163,
        43,
        132,
        322,
        274,
        235,
        115,
        253,
        54,
        4,
        263,
        495,
        109,
        67,
        387,
        14,
        80,
        52,
        313,
        389,
        148,
        380,
        112,
        388,
        167,
        223,
        292,
        179,
        1,
        249,
        382,
        38,
        494,
        308,
        230,
        214,
        136,
        421,
        192,
        341,
        416,
        20,
        493,
        410,
        417,
        430,
        12,
        291,
        462,
        131,
        258,
        191,
        159,
        288,
        29,
        307,
        300,
        113,
        199,
        303,
        196,
        459,
        221,
        96,
        327,
        137,
        283,
        57,
        378,
        323,
        242,
        209,
        231,
        317,
        75,
        134,
        218,
        156,
        355,
        2,
        469,
        162,
        236,
        220,
        99,
        301,
        357,
        304,
        330,
        381,
        104,
        367,
        0,
        61,
        213,
        488,
        383,
        338,
        409,
        372,
        483,
        24,
        398,
        222,
        279,
        188,
        266,
        324,
        316,
        187,
        202,
        499
    ],
    "Global Optimum": 0,
    "Algorithm": "Genetic algorithm",
    "Parameters": {
        "population": 30,
        "offspring": 30,
        "mutation probability": 0.002,
        "crossover probability": 0.9
    },
    "Fitness": 666631,
    "Solution": [
        56,
        384,
        186,
        203,
        309,
        183,
        344,
        89,
        377,
        371,
        60,
        403,
        182,
        201,
        489,
        165,
        392,
        299,
        356,
        428,
        466,
        58,
        40,
        426,
        149,
        47,
        296,
        35,
        480,
        486,
        45,
        206,
        484,
        26,
        185,
        117,
        215,
        443,
        37,
        161,
        217,
        261,
        325,
        257,
        348,
        138,
        425,
        110,
        460,
        241,
        379,
        16,
        479,
        349,
        100,
        8,
        153,
        15,
        463,
        69,
        51,
        155,
        320,
        408,
        464,
        472,
        407,
        312,
        437,
        126,
        289,
        311,
        255,
        386,
        157,
        244,
        48,
        498,
        278,
        78,
        83,
        406,
        265,
        23,
        17,
        119,
        147,
        85,
        13,
        74,
        226,
        234,
        446,
        190,
        171,
        39,
        412,
        447,
        152,
        158,
        286,
        102,
        154,
        267,
        465,
        332,
        365,
        229,
        497,
        247,
        336,
        97,
        343,
        5,
        73,
        127,
        50,
        84,
        418,
        216,
        439,
        298,
        208,
        123,
        34,
        6,
        245,
        150,
        415,
        376,
        195,
        413,
        442,
        125,
        335,
        174,
        144,
        326,
        219,
        59,
        105,
        262,
        87,
        254,
        94,
        411,
        124,
        7,
        81,
        139,
        46,
        10,
        122,
        436,
        456,
        293,
        334,
        111,
        396,
        276,
        434,
        302,
        275,
        393,
        211,
        366,
        470,
        25,
        310,
        319,
        359,
        227,
        238,
        491,
        133,
        321,
        91,
        427,
        373,
        64,
        169,
        419,
        420,
        315,
        160,
        232,
        364,
        225,
        431,
        438,
        269,
        368,
        33,
        471,
        228,
        402,
        340,
        107,
        103,
        32,
        128,
        461,
        363,
        189,
        62,
        164,
        390,
        454,
        71,
        391,
        31,
        496,
        3,
        88,
        284,
        285,
        194,
        485,
        70,
        79,
        295,
        141,
        281,
        178,
        282,
        98,
        369,
        181,
        318,
        457,
        328,
        239,
        404,
        248,
        53,
        30,
        41,
        210,
        350,
        444,
        175,
        130,
        184,
        478,
        468,
        63,
        448,
        176,
        82,
        476,
        90,
        433,
        333,
        93,
        246,
        294,
        270,
        42,
        77,
        177,
        207,
        204,
        18,
        260,
        151,
        339,
        212,
        445,
        435,
        22,
        142,
        441,
        240,
        473,
        345,
        487,
        451,
        198,
        337,
        19,
        458,
        273,
        9,
        108,
        474,
        397,
        28,
        259,
        314,
        49,
        92,
        193,
        200,
        353,
        450,
        331,
        305,
        358,
        477,
        370,
        66,
        271,
        423,
        65,
        106,
        362,
        297,
        401,
        76,
        36,
        86,
        399,
        264,
        224,
        55,
        44,
        140,
        414,
        243,
        146,
        180,
        173,
        385,
        68,
        481,
        120,
        256,
        145,
        143,
        490,
        492,
        168,
        306,
        449,
        205,
        422,
        116,
        352,
        272,
        452,
        197,
        166,
        361,
        268,
        72,
        237,
        11,
        346,
        252,
        114,
        21,
        287,
        329,
        27,
        135,
        121,
        375,
        342,
        95,
        351,
        347,
        400,
        118,
        290,
        129,
        405,
        354,
        233,
        101,
        455,
        250,
        280,
        394,
        360,
        440,
        467,
        424,
        170,
        277,
        429,
        395,
        475,
        172,
        432,
        453,
        482,
        251,
        374,
        163,
        43,
        132,
        322,
        274,
        235,
        115,
        253,
        54,
        4,
        263,
        495,
        109,
        67,
        387,
        14,
        80,
        52,
        313,
        389,
        148,
        380,
        112,
        388,
        167,
        223,
        292,
        179,
        1,
        249,
        382,
        38,
        494,
        308,
        230,
        214,
        136,
        421,
        192,
        341,
        416,
        20,
        493,
        410,
        417,
        430,
        12,
        291,
        462,
        131,
        258,
        191,
        159,
        288,
        29,
        307,
        300,
        113,
        199,
        303,
        196,
        459,
        221,
        96,
        327,
        137,
        283,
        57,
        378,
        323,
        242,
        209,
        231,
        317,
        75,
        134,
        218,
        156,
        355,
        2,
        469,
        162,
        236,
        220,
        99,
        301,
        357,
        304,
        330,
        381,
        104,
        367,
        0,
        61,
        213,
        488,
        383,
        338,
        409,
        372,
        483,
        24,
        398,
        222,
        279,
        188,
        266,
        324,
        316,
        187,
        202,
        499
    ],
    "Nb of functions evaluations": 50010,
    "Computational time in seconds": 367.375200510025,
    "Stopping criterion in evaluations": 50000
}